proyfinal/src/viki/013/experimentInOfficeAgust.take6.output/017c210c-d294-43c3-b7c7-d16938cc7fda.als.out
Reading from standard input... Use '--help' for help.
============================[ Problem Statistics ]=============================
|                                                                             |
|  Number of variables:         87638                                         |
|  Number of clauses:          161767                                         |
|  Parse time:                   0.04 s                                       |
|                                                                             |
============================[ Search Statistics ]==============================
| Conflicts |          ORIGINAL         |          LEARNT          | Progress |
|           |    Vars  Clauses Literals |    Limit  Clauses Lit/Cl |          |
===============================================================================
|       100 |   63784   110284   275415 |    40437      100     26 | 27.219 % |
|       250 |   63784   110284   275415 |    44481      250     47 | 27.219 % |
|       475 |   63784   110284   275415 |    48929      475     54 | 27.219 % |
|       812 |   55117    84073   211119 |    53822      792     54 | 37.108 % |
|      1318 |   55095    83999   210941 |    59204     1297     50 | 37.133 % |
|      2077 |   55005    83841   210577 |    65124     2052     58 | 37.236 % |
|      3216 |   54981    83525   209815 |    71637     3184     66 | 37.264 % |
|      4924 |   54981    83525   209815 |    78801     4892     79 | 37.264 % |
|      7486 |   54757    82869   208212 |    86681     7441     80 | 37.519 % |
|     11330 |   54582    82028   206296 |    95349    10836     78 | 37.719 % |
|     17096 |   54427    81390   204783 |   104884    16551     81 | 37.896 % |
===============================================================================
restarts              : 85
conflicts             : 23334          (6862 /sec)
decisions             : 85217          (0.00 % random) (25061 /sec)
propagations          : 34883475       (10258796 /sec)
conflict literals     : 1925569        (40.07 % deleted)
Memory used           : 44.31 MB
CPU time              : 3.40035 s

INDETERMINATE
